problems/GracefulHelms/GracefulHelms-models/noch/O2/lingeling/model-n13-solution000001.eprime-solution
language ESSENCE' 1.0

letting colouring_Function1D be
        [0, 10, 34, 1, 26, 20, 7, 9, 2, 19, 3, 4, 30, 39, 37, 31, 33, 12, 29, 27, 32, 24, 8, 18, 25, 35, 38; int(0..26)]
letting edgeID_Function1D be
        [10, 24, 33, 25, 6, 13, 2, 7, 17, 16, 1, 26, 30, 39, 27, 3, 32, 14, 9, 20, 23, 22, 11, 15, 21, 5, 38, 28, 4, 37,
         12, 18, 31, 29, 36, 19, 35, 34, 8; int(0..38)]
